c ind 1 20 21 22 23 24 25 26 27 28 29 30 31 32 33 34 35 0
p cnf 66 154
1 -3 0
2 -3 0
-1 -2 3 0
1 -5 0
2 -5 0
4 -5 0
-1 -2 -4 5 0
1 -7 0
2 -7 0
4 -7 0
6 -7 0
-1 -2 -4 -6 7 0
1 -9 0
2 -9 0
4 -9 0
6 -9 0
8 -9 0
-1 -2 -4 -6 -8 9 0
1 -10 0
2 -10 0
4 -10 0
6 -10 0
-8 -10 0
-1 -2 -4 -6 8 10 0
1 -12 0
2 -12 0
4 -12 0
6 -12 0
-8 -12 0
11 -12 0
-1 -2 -4 -6 8 -11 12 0
1 -13 0
2 -13 0
4 -13 0
6 -13 0
-8 -13 0
-11 -13 0
-1 -2 -4 -6 8 11 13 0
1 -15 0
2 -15 0
4 -15 0
6 -15 0
-8 -15 0
-11 -15 0
14 -15 0
-1 -2 -4 -6 8 11 -14 15 0
1 -16 0
2 -16 0
4 -16 0
6 -16 0
-8 -16 0
-11 -16 0
-14 -16 0
-1 -2 -4 -6 8 11 14 16 0
1 -18 0
2 -18 0
4 -18 0
6 -18 0
-8 -18 0
-11 -18 0
-14 -18 0
17 -18 0
-1 -2 -4 -6 8 11 14 -17 18 0
19 0
20 -36 0
-20 36 0
-1 -36 -37 0
1 36 -37 0
-1 36 37 0
1 -36 37 0
-37 0
25 -38 0
-25 38 0
-2 -38 -39 0
2 38 -39 0
-2 38 39 0
2 -38 39 0
-39 0
30 -40 0
-30 40 0
-4 -40 -41 0
4 40 -41 0
-4 40 41 0
4 -40 41 0
-41 0
35 -42 0
-35 42 0
-6 -42 -43 0
6 42 -43 0
-6 42 43 0
6 -42 43 0
-43 0
-30 44 0
30 -44 0
-30 -45 0
30 -45 0
30 46 0
-45 46 0
-30 45 -46 0
-8 -46 -47 0
8 46 -47 0
-8 46 47 0
8 -46 47 0
-47 0
-35 48 0
35 -48 0
-35 -49 0
35 -49 0
35 50 0
-49 50 0
-35 49 -50 0
-11 -50 -51 0
11 50 -51 0
-11 50 51 0
11 -50 51 0
-51 0
-20 52 0
20 -52 0
-20 -53 0
20 -53 0
20 54 0
-53 54 0
-20 53 -54 0
-14 -54 -55 0
14 54 -55 0
-14 54 55 0
14 -54 55 0
-55 0
-25 56 0
25 -56 0
-25 -57 0
25 -57 0
25 58 0
-57 58 0
-25 57 -58 0
-17 -58 -59 0
17 58 -59 0
-17 58 59 0
17 -58 59 0
-59 0
9 12 15 18 0
-60 -62 -64 0
60 62 -64 0
-60 62 64 0
60 -62 64 0
-61 -63 -65 0
61 63 -65 0
-61 63 65 0
61 -63 65 0
-64 -66 0
-65 -66 0
64 65 66 0
-19 66 0
19 -66 0
c __CPROVER_malloc_is_new_array#1 FALSE
c goto_symex::\guard#1 1
c goto_symex::\guard#2 2
c goto_symex::\guard#3 4
c goto_symex::\guard#4 6
c goto_symex::\guard#5 8
c goto_symex::\guard#6 11
c goto_symex::\guard#7 14
c goto_symex::\guard#8 17
c __CPROVER_thread_id!0#1 FALSE FALSE FALSE FALSE FALSE FALSE FALSE FALSE FALSE FALSE FALSE FALSE FALSE FALSE FALSE FALSE FALSE FALSE FALSE FALSE FALSE FALSE FALSE FALSE FALSE FALSE FALSE FALSE FALSE FALSE FALSE FALSE FALSE FALSE FALSE FALSE FALSE FALSE FALSE FALSE FALSE FALSE FALSE FALSE FALSE FALSE FALSE FALSE FALSE FALSE FALSE FALSE FALSE FALSE FALSE FALSE FALSE FALSE FALSE FALSE FALSE FALSE FALSE FALSE
c __CPROVER_rounding_mode!0#1 FALSE FALSE FALSE FALSE FALSE FALSE FALSE FALSE FALSE FALSE FALSE FALSE FALSE FALSE FALSE FALSE FALSE FALSE FALSE FALSE FALSE FALSE FALSE FALSE FALSE FALSE FALSE FALSE FALSE FALSE FALSE FALSE
c __CPROVER_pipe_count#1 FALSE FALSE FALSE FALSE FALSE FALSE FALSE FALSE FALSE FALSE FALSE FALSE FALSE FALSE FALSE FALSE FALSE FALSE FALSE FALSE FALSE FALSE FALSE FALSE FALSE FALSE FALSE FALSE FALSE FALSE FALSE FALSE
c __CPROVER_deallocated#1 FALSE FALSE FALSE FALSE FALSE FALSE FALSE FALSE FALSE FALSE FALSE FALSE FALSE FALSE FALSE FALSE FALSE FALSE FALSE FALSE FALSE FALSE FALSE FALSE FALSE FALSE FALSE FALSE FALSE FALSE FALSE FALSE FALSE FALSE FALSE FALSE FALSE FALSE FALSE FALSE FALSE FALSE FALSE FALSE FALSE FALSE FALSE FALSE FALSE FALSE FALSE FALSE FALSE FALSE FALSE FALSE FALSE FALSE FALSE FALSE FALSE FALSE FALSE FALSE
c check::1::x!0@1#1 20 21 22 23 24 25 26 27 28 29 30 31 32 33 34 35
c __CPROVER_dead_object#1 FALSE FALSE FALSE FALSE FALSE FALSE FALSE FALSE FALSE FALSE FALSE FALSE FALSE FALSE FALSE FALSE FALSE FALSE FALSE FALSE FALSE FALSE FALSE FALSE FALSE FALSE FALSE FALSE FALSE FALSE FALSE FALSE FALSE FALSE FALSE FALSE FALSE FALSE FALSE FALSE FALSE FALSE FALSE FALSE FALSE FALSE FALSE FALSE FALSE FALSE FALSE FALSE FALSE FALSE FALSE FALSE FALSE FALSE FALSE FALSE FALSE FALSE FALSE FALSE
c __CPROVER_next_thread_id#1 FALSE FALSE FALSE FALSE FALSE FALSE FALSE FALSE FALSE FALSE FALSE FALSE FALSE FALSE FALSE FALSE FALSE FALSE FALSE FALSE FALSE FALSE FALSE FALSE FALSE FALSE FALSE FALSE FALSE FALSE FALSE FALSE FALSE FALSE FALSE FALSE FALSE FALSE FALSE FALSE FALSE FALSE FALSE FALSE FALSE FALSE FALSE FALSE FALSE FALSE FALSE FALSE FALSE FALSE FALSE FALSE FALSE FALSE FALSE FALSE FALSE FALSE FALSE FALSE
c __CPROVER_malloc_object#1 FALSE FALSE FALSE FALSE FALSE FALSE FALSE FALSE FALSE FALSE FALSE FALSE FALSE FALSE FALSE FALSE FALSE FALSE FALSE FALSE FALSE FALSE FALSE FALSE FALSE FALSE FALSE FALSE FALSE FALSE FALSE FALSE FALSE FALSE FALSE FALSE FALSE FALSE FALSE FALSE FALSE FALSE FALSE FALSE FALSE FALSE FALSE FALSE FALSE FALSE FALSE FALSE FALSE FALSE FALSE FALSE FALSE FALSE FALSE FALSE FALSE FALSE FALSE FALSE
c __CPROVER_malloc_size#1 FALSE FALSE FALSE FALSE FALSE FALSE FALSE FALSE FALSE FALSE FALSE FALSE FALSE FALSE FALSE FALSE FALSE FALSE FALSE FALSE FALSE FALSE FALSE FALSE FALSE FALSE FALSE FALSE FALSE FALSE FALSE FALSE FALSE FALSE FALSE FALSE FALSE FALSE FALSE FALSE FALSE FALSE FALSE FALSE FALSE FALSE FALSE FALSE FALSE FALSE FALSE FALSE FALSE FALSE FALSE FALSE FALSE FALSE FALSE FALSE FALSE FALSE FALSE FALSE
c __CPROVER_memory_leak#1 FALSE FALSE FALSE FALSE FALSE FALSE FALSE FALSE FALSE FALSE FALSE FALSE FALSE FALSE FALSE FALSE FALSE FALSE FALSE FALSE FALSE FALSE FALSE FALSE FALSE FALSE FALSE FALSE FALSE FALSE FALSE FALSE FALSE FALSE FALSE FALSE FALSE FALSE FALSE FALSE FALSE FALSE FALSE FALSE FALSE FALSE FALSE FALSE FALSE FALSE FALSE FALSE FALSE FALSE FALSE FALSE FALSE FALSE FALSE FALSE FALSE FALSE FALSE FALSE
